NAME:  prueba_ATSP_10_B
TYPE: ATSP
COMMENT: Instancia de prueba B para ATSP con 10 residencias
DIMENSION: 10
EDGE_WEIGHT_TYPE: EXPLICIT
EDGE_WEIGHT_FORMAT: FULL_MATRIX
EDGE_WEIGHT_SECTION
 9999    5    8    3    1   12   15   10    7    2
    6 9999    4    2   10   11    6   14   18    8
    9    3 9999    7    6    9   13   16   12   11
    4    8    6 9999    9   15   17   20    5   14
   11   16    9   13 9999   19   22    8   15   13
   13   11    7   15    8 9999   10   17    4    6
   18    6   12   19   16    8 9999    3   17   10
    7   14   16   20   22   17    3 9999   11   18
   15   18   12    5   15    4   17   11 9999    9
    4    8   11   14   13    6   10   18   15 9999
EOF
